(set-logic QF_LRA)
(declare-fun T1 () Real )
(declare-fun T2 () Real )
(declare-fun T3 () Real )
(declare-fun T4 () Real )
(declare-fun T5 () Real )
(declare-fun T6 () Real )
(declare-fun T7 () Real )
(declare-fun T8 () Real )
(declare-fun T9 () Real )
(declare-fun T10 () Real )
(declare-fun Z () Real )
(declare-fun k () Real )
(assert (let
(( $goal (>= Z k) ))
(let
((
$phi ( and 
(or ( <= ( + T1 26 ) T2 ) ( <= ( + T2 54 ) T1 ) )
(or ( <= ( + T1 61 )  ( + T2 54 ) ) ( <= ( + T2 102 )( + T1 26 ) ) )
(or ( <= ( + T1 109 )  ( + T2 102 ) ) ( <= ( + T2 151 )( + T1 61 ) ) )
(or ( <= ( + T1 179 )  ( + T2 151 ) ) ( <= ( + T2 216 )( + T1 109 ) ) )
(or ( <= ( + T1 219 )  ( + T2 216 ) ) ( <= ( + T2 261 )( + T1 179 ) ) )
(or ( <= ( + T1 276 )  ( + T2 261 ) ) ( <= ( + T2 329 )( + T1 219 ) ) )
(or ( <= ( + T1 304 )  ( + T2 329 ) ) ( <= ( + T2 416 )( + T1 276 ) ) )
(or ( <= ( + T1 395 )  ( + T2 416 ) ) ( <= ( + T2 512 )( + T1 304 ) ) )
(or ( <= ( + T1 26 ) T3 ) ( <= ( + T3 93 ) T1 ) )
(or ( <= ( + T1 61 )  ( + T3 93 ) ) ( <= ( + T3 189 )( + T1 26 ) ) )
(or ( <= ( + T1 109 )  ( + T3 189 ) ) ( <= ( + T3 280 )( + T1 61 ) ) )
(or ( <= ( + T1 179 )  ( + T3 280 ) ) ( <= ( + T3 341 )( + T1 109 ) ) )
(or ( <= ( + T1 219 )  ( + T3 341 ) ) ( <= ( + T3 389 )( + T1 179 ) ) )
(or ( <= ( + T1 276 )  ( + T3 389 ) ) ( <= ( + T3 480 )( + T1 219 ) ) )
(or ( <= ( + T1 304 )  ( + T3 480 ) ) ( <= ( + T3 512 )( + T1 276 ) ) )
(or ( <= ( + T1 395 )  ( + T3 512 ) ) ( <= ( + T3 543 )( + T1 304 ) ) )
(or ( <= ( + T1 26 ) T4 ) ( <= ( + T4 89 ) T1 ) )
(or ( <= ( + T1 61 )  ( + T4 89 ) ) ( <= ( + T4 92 )( + T1 26 ) ) )
(or ( <= ( + T1 109 )  ( + T4 92 ) ) ( <= ( + T4 128 )( + T1 61 ) ) )
(or ( <= ( + T1 179 )  ( + T4 128 ) ) ( <= ( + T4 133 )( + T1 109 ) ) )
(or ( <= ( + T1 219 )  ( + T4 133 ) ) ( <= ( + T4 187 )( + T1 179 ) ) )
(or ( <= ( + T1 276 )  ( + T4 187 ) ) ( <= ( + T4 286 )( + T1 219 ) ) )
(or ( <= ( + T1 304 )  ( + T4 286 ) ) ( <= ( + T4 359 )( + T1 276 ) ) )
(or ( <= ( + T1 395 )  ( + T4 359 ) ) ( <= ( + T4 438 )( + T1 304 ) ) )
(or ( <= ( + T1 26 ) T5 ) ( <= ( + T5 85 ) T1 ) )
(or ( <= ( + T1 61 )  ( + T5 85 ) ) ( <= ( + T5 157 )( + T1 26 ) ) )
(or ( <= ( + T1 109 )  ( + T5 157 ) ) ( <= ( + T5 205 )( + T1 61 ) ) )
(or ( <= ( + T1 179 )  ( + T5 205 ) ) ( <= ( + T5 230 )( + T1 109 ) ) )
(or ( <= ( + T1 219 )  ( + T5 230 ) ) ( <= ( + T5 258 )( + T1 179 ) ) )
(or ( <= ( + T1 276 )  ( + T5 258 ) ) ( <= ( + T5 285 )( + T1 219 ) ) )
(or ( <= ( + T1 304 )  ( + T5 285 ) ) ( <= ( + T5 300 )( + T1 276 ) ) )
(or ( <= ( + T1 395 )  ( + T5 300 ) ) ( <= ( + T5 333 )( + T1 304 ) ) )
(or ( <= ( + T1 26 ) T6 ) ( <= ( + T6 74 ) T1 ) )
(or ( <= ( + T1 61 )  ( + T6 74 ) ) ( <= ( + T6 89 )( + T1 26 ) ) )
(or ( <= ( + T1 109 )  ( + T6 89 ) ) ( <= ( + T6 138 )( + T1 61 ) ) )
(or ( <= ( + T1 179 )  ( + T6 138 ) ) ( <= ( + T6 157 )( + T1 109 ) ) )
(or ( <= ( + T1 219 )  ( + T6 157 ) ) ( <= ( + T6 239 )( + T1 179 ) ) )
(or ( <= ( + T1 276 )  ( + T6 239 ) ) ( <= ( + T6 274 )( + T1 219 ) ) )
(or ( <= ( + T1 304 )  ( + T6 274 ) ) ( <= ( + T6 288 )( + T1 276 ) ) )
(or ( <= ( + T1 395 )  ( + T6 288 ) ) ( <= ( + T6 362 )( + T1 304 ) ) )
(or ( <= ( + T1 26 ) T7 ) ( <= ( + T7 30 ) T1 ) )
(or ( <= ( + T1 61 )  ( + T7 30 ) ) ( <= ( + T7 86 )( + T1 26 ) ) )
(or ( <= ( + T1 109 )  ( + T7 86 ) ) ( <= ( + T7 120 )( + T1 61 ) ) )
(or ( <= ( + T1 179 )  ( + T7 120 ) ) ( <= ( + T7 149 )( + T1 109 ) ) )
(or ( <= ( + T1 219 )  ( + T7 149 ) ) ( <= ( + T7 247 )( + T1 179 ) ) )
(or ( <= ( + T1 276 )  ( + T7 247 ) ) ( <= ( + T7 264 )( + T1 219 ) ) )
(or ( <= ( + T1 304 )  ( + T7 264 ) ) ( <= ( + T7 275 )( + T1 276 ) ) )
(or ( <= ( + T1 395 )  ( + T7 275 ) ) ( <= ( + T7 314 )( + T1 304 ) ) )
(or ( <= ( + T1 26 ) T8 ) ( <= ( + T8 19 ) T1 ) )
(or ( <= ( + T1 61 )  ( + T8 19 ) ) ( <= ( + T8 66 )( + T1 26 ) ) )
(or ( <= ( + T1 109 )  ( + T8 66 ) ) ( <= ( + T8 161 )( + T1 61 ) ) )
(or ( <= ( + T1 179 )  ( + T8 161 ) ) ( <= ( + T8 185 )( + T1 109 ) ) )
(or ( <= ( + T1 219 )  ( + T8 185 ) ) ( <= ( + T8 282 )( + T1 179 ) ) )
(or ( <= ( + T1 276 )  ( + T8 282 ) ) ( <= ( + T8 349 )( + T1 219 ) ) )
(or ( <= ( + T1 304 )  ( + T8 349 ) ) ( <= ( + T8 351 )( + T1 276 ) ) )
(or ( <= ( + T1 395 )  ( + T8 351 ) ) ( <= ( + T8 433 )( + T1 304 ) ) )
(or ( <= ( + T1 26 ) T9 ) ( <= ( + T9 90 ) T1 ) )
(or ( <= ( + T1 61 )  ( + T9 90 ) ) ( <= ( + T9 140 )( + T1 26 ) ) )
(or ( <= ( + T1 109 )  ( + T9 140 ) ) ( <= ( + T9 198 )( + T1 61 ) ) )
(or ( <= ( + T1 179 )  ( + T9 198 ) ) ( <= ( + T9 267 )( + T1 109 ) ) )
(or ( <= ( + T1 219 )  ( + T9 267 ) ) ( <= ( + T9 295 )( + T1 179 ) ) )
(or ( <= ( + T1 276 )  ( + T9 295 ) ) ( <= ( + T9 367 )( + T1 219 ) ) )
(or ( <= ( + T1 304 )  ( + T9 367 ) ) ( <= ( + T9 420 )( + T1 276 ) ) )
(or ( <= ( + T1 395 )  ( + T9 420 ) ) ( <= ( + T9 422 )( + T1 304 ) ) )
(or ( <= ( + T1 26 ) T10 ) ( <= ( + T10 87 ) T1 ) )
(or ( <= ( + T1 61 )  ( + T10 87 ) ) ( <= ( + T10 88 )( + T1 26 ) ) )
(or ( <= ( + T1 109 )  ( + T10 88 ) ) ( <= ( + T10 160 )( + T1 61 ) ) )
(or ( <= ( + T1 179 )  ( + T10 160 ) ) ( <= ( + T10 180 )( + T1 109 ) ) )
(or ( <= ( + T1 219 )  ( + T10 180 ) ) ( <= ( + T10 268 )( + T1 179 ) ) )
(or ( <= ( + T1 276 )  ( + T10 268 ) ) ( <= ( + T10 305 )( + T1 219 ) ) )
(or ( <= ( + T1 304 )  ( + T10 305 ) ) ( <= ( + T10 399 )( + T1 276 ) ) )
(or ( <= ( + T1 395 )  ( + T10 399 ) ) ( <= ( + T10 416 )( + T1 304 ) ) )
(or ( <= ( + T2 54 ) T3 ) ( <= ( + T3 93 ) T2 ) )
(or ( <= ( + T2 102 )  ( + T3 93 ) ) ( <= ( + T3 189 )( + T2 54 ) ) )
(or ( <= ( + T2 151 )  ( + T3 189 ) ) ( <= ( + T3 280 )( + T2 102 ) ) )
(or ( <= ( + T2 216 )  ( + T3 280 ) ) ( <= ( + T3 341 )( + T2 151 ) ) )
(or ( <= ( + T2 261 )  ( + T3 341 ) ) ( <= ( + T3 389 )( + T2 216 ) ) )
(or ( <= ( + T2 329 )  ( + T3 389 ) ) ( <= ( + T3 480 )( + T2 261 ) ) )
(or ( <= ( + T2 416 )  ( + T3 480 ) ) ( <= ( + T3 512 )( + T2 329 ) ) )
(or ( <= ( + T2 512 )  ( + T3 512 ) ) ( <= ( + T3 543 )( + T2 416 ) ) )
(or ( <= ( + T2 54 ) T4 ) ( <= ( + T4 89 ) T2 ) )
(or ( <= ( + T2 102 )  ( + T4 89 ) ) ( <= ( + T4 92 )( + T2 54 ) ) )
(or ( <= ( + T2 151 )  ( + T4 92 ) ) ( <= ( + T4 128 )( + T2 102 ) ) )
(or ( <= ( + T2 216 )  ( + T4 128 ) ) ( <= ( + T4 133 )( + T2 151 ) ) )
(or ( <= ( + T2 261 )  ( + T4 133 ) ) ( <= ( + T4 187 )( + T2 216 ) ) )
(or ( <= ( + T2 329 )  ( + T4 187 ) ) ( <= ( + T4 286 )( + T2 261 ) ) )
(or ( <= ( + T2 416 )  ( + T4 286 ) ) ( <= ( + T4 359 )( + T2 329 ) ) )
(or ( <= ( + T2 512 )  ( + T4 359 ) ) ( <= ( + T4 438 )( + T2 416 ) ) )
(or ( <= ( + T2 54 ) T5 ) ( <= ( + T5 85 ) T2 ) )
(or ( <= ( + T2 102 )  ( + T5 85 ) ) ( <= ( + T5 157 )( + T2 54 ) ) )
(or ( <= ( + T2 151 )  ( + T5 157 ) ) ( <= ( + T5 205 )( + T2 102 ) ) )
(or ( <= ( + T2 216 )  ( + T5 205 ) ) ( <= ( + T5 230 )( + T2 151 ) ) )
(or ( <= ( + T2 261 )  ( + T5 230 ) ) ( <= ( + T5 258 )( + T2 216 ) ) )
(or ( <= ( + T2 329 )  ( + T5 258 ) ) ( <= ( + T5 285 )( + T2 261 ) ) )
(or ( <= ( + T2 416 )  ( + T5 285 ) ) ( <= ( + T5 300 )( + T2 329 ) ) )
(or ( <= ( + T2 512 )  ( + T5 300 ) ) ( <= ( + T5 333 )( + T2 416 ) ) )
(or ( <= ( + T2 54 ) T6 ) ( <= ( + T6 74 ) T2 ) )
(or ( <= ( + T2 102 )  ( + T6 74 ) ) ( <= ( + T6 89 )( + T2 54 ) ) )
(or ( <= ( + T2 151 )  ( + T6 89 ) ) ( <= ( + T6 138 )( + T2 102 ) ) )
(or ( <= ( + T2 216 )  ( + T6 138 ) ) ( <= ( + T6 157 )( + T2 151 ) ) )
(or ( <= ( + T2 261 )  ( + T6 157 ) ) ( <= ( + T6 239 )( + T2 216 ) ) )
(or ( <= ( + T2 329 )  ( + T6 239 ) ) ( <= ( + T6 274 )( + T2 261 ) ) )
(or ( <= ( + T2 416 )  ( + T6 274 ) ) ( <= ( + T6 288 )( + T2 329 ) ) )
(or ( <= ( + T2 512 )  ( + T6 288 ) ) ( <= ( + T6 362 )( + T2 416 ) ) )
(or ( <= ( + T2 54 ) T7 ) ( <= ( + T7 30 ) T2 ) )
(or ( <= ( + T2 102 )  ( + T7 30 ) ) ( <= ( + T7 86 )( + T2 54 ) ) )
(or ( <= ( + T2 151 )  ( + T7 86 ) ) ( <= ( + T7 120 )( + T2 102 ) ) )
(or ( <= ( + T2 216 )  ( + T7 120 ) ) ( <= ( + T7 149 )( + T2 151 ) ) )
(or ( <= ( + T2 261 )  ( + T7 149 ) ) ( <= ( + T7 247 )( + T2 216 ) ) )
(or ( <= ( + T2 329 )  ( + T7 247 ) ) ( <= ( + T7 264 )( + T2 261 ) ) )
(or ( <= ( + T2 416 )  ( + T7 264 ) ) ( <= ( + T7 275 )( + T2 329 ) ) )
(or ( <= ( + T2 512 )  ( + T7 275 ) ) ( <= ( + T7 314 )( + T2 416 ) ) )
(or ( <= ( + T2 54 ) T8 ) ( <= ( + T8 19 ) T2 ) )
(or ( <= ( + T2 102 )  ( + T8 19 ) ) ( <= ( + T8 66 )( + T2 54 ) ) )
(or ( <= ( + T2 151 )  ( + T8 66 ) ) ( <= ( + T8 161 )( + T2 102 ) ) )
(or ( <= ( + T2 216 )  ( + T8 161 ) ) ( <= ( + T8 185 )( + T2 151 ) ) )
(or ( <= ( + T2 261 )  ( + T8 185 ) ) ( <= ( + T8 282 )( + T2 216 ) ) )
(or ( <= ( + T2 329 )  ( + T8 282 ) ) ( <= ( + T8 349 )( + T2 261 ) ) )
(or ( <= ( + T2 416 )  ( + T8 349 ) ) ( <= ( + T8 351 )( + T2 329 ) ) )
(or ( <= ( + T2 512 )  ( + T8 351 ) ) ( <= ( + T8 433 )( + T2 416 ) ) )
(or ( <= ( + T2 54 ) T9 ) ( <= ( + T9 90 ) T2 ) )
(or ( <= ( + T2 102 )  ( + T9 90 ) ) ( <= ( + T9 140 )( + T2 54 ) ) )
(or ( <= ( + T2 151 )  ( + T9 140 ) ) ( <= ( + T9 198 )( + T2 102 ) ) )
(or ( <= ( + T2 216 )  ( + T9 198 ) ) ( <= ( + T9 267 )( + T2 151 ) ) )
(or ( <= ( + T2 261 )  ( + T9 267 ) ) ( <= ( + T9 295 )( + T2 216 ) ) )
(or ( <= ( + T2 329 )  ( + T9 295 ) ) ( <= ( + T9 367 )( + T2 261 ) ) )
(or ( <= ( + T2 416 )  ( + T9 367 ) ) ( <= ( + T9 420 )( + T2 329 ) ) )
(or ( <= ( + T2 512 )  ( + T9 420 ) ) ( <= ( + T9 422 )( + T2 416 ) ) )
(or ( <= ( + T2 54 ) T10 ) ( <= ( + T10 87 ) T2 ) )
(or ( <= ( + T2 102 )  ( + T10 87 ) ) ( <= ( + T10 88 )( + T2 54 ) ) )
(or ( <= ( + T2 151 )  ( + T10 88 ) ) ( <= ( + T10 160 )( + T2 102 ) ) )
(or ( <= ( + T2 216 )  ( + T10 160 ) ) ( <= ( + T10 180 )( + T2 151 ) ) )
(or ( <= ( + T2 261 )  ( + T10 180 ) ) ( <= ( + T10 268 )( + T2 216 ) ) )
(or ( <= ( + T2 329 )  ( + T10 268 ) ) ( <= ( + T10 305 )( + T2 261 ) ) )
(or ( <= ( + T2 416 )  ( + T10 305 ) ) ( <= ( + T10 399 )( + T2 329 ) ) )
(or ( <= ( + T2 512 )  ( + T10 399 ) ) ( <= ( + T10 416 )( + T2 416 ) ) )
(or ( <= ( + T3 93 ) T4 ) ( <= ( + T4 89 ) T3 ) )
(or ( <= ( + T3 189 )  ( + T4 89 ) ) ( <= ( + T4 92 )( + T3 93 ) ) )
(or ( <= ( + T3 280 )  ( + T4 92 ) ) ( <= ( + T4 128 )( + T3 189 ) ) )
(or ( <= ( + T3 341 )  ( + T4 128 ) ) ( <= ( + T4 133 )( + T3 280 ) ) )
(or ( <= ( + T3 389 )  ( + T4 133 ) ) ( <= ( + T4 187 )( + T3 341 ) ) )
(or ( <= ( + T3 480 )  ( + T4 187 ) ) ( <= ( + T4 286 )( + T3 389 ) ) )
(or ( <= ( + T3 512 )  ( + T4 286 ) ) ( <= ( + T4 359 )( + T3 480 ) ) )
(or ( <= ( + T3 543 )  ( + T4 359 ) ) ( <= ( + T4 438 )( + T3 512 ) ) )
(or ( <= ( + T3 93 ) T5 ) ( <= ( + T5 85 ) T3 ) )
(or ( <= ( + T3 189 )  ( + T5 85 ) ) ( <= ( + T5 157 )( + T3 93 ) ) )
(or ( <= ( + T3 280 )  ( + T5 157 ) ) ( <= ( + T5 205 )( + T3 189 ) ) )
(or ( <= ( + T3 341 )  ( + T5 205 ) ) ( <= ( + T5 230 )( + T3 280 ) ) )
(or ( <= ( + T3 389 )  ( + T5 230 ) ) ( <= ( + T5 258 )( + T3 341 ) ) )
(or ( <= ( + T3 480 )  ( + T5 258 ) ) ( <= ( + T5 285 )( + T3 389 ) ) )
(or ( <= ( + T3 512 )  ( + T5 285 ) ) ( <= ( + T5 300 )( + T3 480 ) ) )
(or ( <= ( + T3 543 )  ( + T5 300 ) ) ( <= ( + T5 333 )( + T3 512 ) ) )
(or ( <= ( + T3 93 ) T6 ) ( <= ( + T6 74 ) T3 ) )
(or ( <= ( + T3 189 )  ( + T6 74 ) ) ( <= ( + T6 89 )( + T3 93 ) ) )
(or ( <= ( + T3 280 )  ( + T6 89 ) ) ( <= ( + T6 138 )( + T3 189 ) ) )
(or ( <= ( + T3 341 )  ( + T6 138 ) ) ( <= ( + T6 157 )( + T3 280 ) ) )
(or ( <= ( + T3 389 )  ( + T6 157 ) ) ( <= ( + T6 239 )( + T3 341 ) ) )
(or ( <= ( + T3 480 )  ( + T6 239 ) ) ( <= ( + T6 274 )( + T3 389 ) ) )
(or ( <= ( + T3 512 )  ( + T6 274 ) ) ( <= ( + T6 288 )( + T3 480 ) ) )
(or ( <= ( + T3 543 )  ( + T6 288 ) ) ( <= ( + T6 362 )( + T3 512 ) ) )
(or ( <= ( + T3 93 ) T7 ) ( <= ( + T7 30 ) T3 ) )
(or ( <= ( + T3 189 )  ( + T7 30 ) ) ( <= ( + T7 86 )( + T3 93 ) ) )
(or ( <= ( + T3 280 )  ( + T7 86 ) ) ( <= ( + T7 120 )( + T3 189 ) ) )
(or ( <= ( + T3 341 )  ( + T7 120 ) ) ( <= ( + T7 149 )( + T3 280 ) ) )
(or ( <= ( + T3 389 )  ( + T7 149 ) ) ( <= ( + T7 247 )( + T3 341 ) ) )
(or ( <= ( + T3 480 )  ( + T7 247 ) ) ( <= ( + T7 264 )( + T3 389 ) ) )
(or ( <= ( + T3 512 )  ( + T7 264 ) ) ( <= ( + T7 275 )( + T3 480 ) ) )
(or ( <= ( + T3 543 )  ( + T7 275 ) ) ( <= ( + T7 314 )( + T3 512 ) ) )
(or ( <= ( + T3 93 ) T8 ) ( <= ( + T8 19 ) T3 ) )
(or ( <= ( + T3 189 )  ( + T8 19 ) ) ( <= ( + T8 66 )( + T3 93 ) ) )
(or ( <= ( + T3 280 )  ( + T8 66 ) ) ( <= ( + T8 161 )( + T3 189 ) ) )
(or ( <= ( + T3 341 )  ( + T8 161 ) ) ( <= ( + T8 185 )( + T3 280 ) ) )
(or ( <= ( + T3 389 )  ( + T8 185 ) ) ( <= ( + T8 282 )( + T3 341 ) ) )
(or ( <= ( + T3 480 )  ( + T8 282 ) ) ( <= ( + T8 349 )( + T3 389 ) ) )
(or ( <= ( + T3 512 )  ( + T8 349 ) ) ( <= ( + T8 351 )( + T3 480 ) ) )
(or ( <= ( + T3 543 )  ( + T8 351 ) ) ( <= ( + T8 433 )( + T3 512 ) ) )
(or ( <= ( + T3 93 ) T9 ) ( <= ( + T9 90 ) T3 ) )
(or ( <= ( + T3 189 )  ( + T9 90 ) ) ( <= ( + T9 140 )( + T3 93 ) ) )
(or ( <= ( + T3 280 )  ( + T9 140 ) ) ( <= ( + T9 198 )( + T3 189 ) ) )
(or ( <= ( + T3 341 )  ( + T9 198 ) ) ( <= ( + T9 267 )( + T3 280 ) ) )
(or ( <= ( + T3 389 )  ( + T9 267 ) ) ( <= ( + T9 295 )( + T3 341 ) ) )
(or ( <= ( + T3 480 )  ( + T9 295 ) ) ( <= ( + T9 367 )( + T3 389 ) ) )
(or ( <= ( + T3 512 )  ( + T9 367 ) ) ( <= ( + T9 420 )( + T3 480 ) ) )
(or ( <= ( + T3 543 )  ( + T9 420 ) ) ( <= ( + T9 422 )( + T3 512 ) ) )
(or ( <= ( + T3 93 ) T10 ) ( <= ( + T10 87 ) T3 ) )
(or ( <= ( + T3 189 )  ( + T10 87 ) ) ( <= ( + T10 88 )( + T3 93 ) ) )
(or ( <= ( + T3 280 )  ( + T10 88 ) ) ( <= ( + T10 160 )( + T3 189 ) ) )
(or ( <= ( + T3 341 )  ( + T10 160 ) ) ( <= ( + T10 180 )( + T3 280 ) ) )
(or ( <= ( + T3 389 )  ( + T10 180 ) ) ( <= ( + T10 268 )( + T3 341 ) ) )
(or ( <= ( + T3 480 )  ( + T10 268 ) ) ( <= ( + T10 305 )( + T3 389 ) ) )
(or ( <= ( + T3 512 )  ( + T10 305 ) ) ( <= ( + T10 399 )( + T3 480 ) ) )
(or ( <= ( + T3 543 )  ( + T10 399 ) ) ( <= ( + T10 416 )( + T3 512 ) ) )
(or ( <= ( + T4 89 ) T5 ) ( <= ( + T5 85 ) T4 ) )
(or ( <= ( + T4 92 )  ( + T5 85 ) ) ( <= ( + T5 157 )( + T4 89 ) ) )
(or ( <= ( + T4 128 )  ( + T5 157 ) ) ( <= ( + T5 205 )( + T4 92 ) ) )
(or ( <= ( + T4 133 )  ( + T5 205 ) ) ( <= ( + T5 230 )( + T4 128 ) ) )
(or ( <= ( + T4 187 )  ( + T5 230 ) ) ( <= ( + T5 258 )( + T4 133 ) ) )
(or ( <= ( + T4 286 )  ( + T5 258 ) ) ( <= ( + T5 285 )( + T4 187 ) ) )
(or ( <= ( + T4 359 )  ( + T5 285 ) ) ( <= ( + T5 300 )( + T4 286 ) ) )
(or ( <= ( + T4 438 )  ( + T5 300 ) ) ( <= ( + T5 333 )( + T4 359 ) ) )
(or ( <= ( + T4 89 ) T6 ) ( <= ( + T6 74 ) T4 ) )
(or ( <= ( + T4 92 )  ( + T6 74 ) ) ( <= ( + T6 89 )( + T4 89 ) ) )
(or ( <= ( + T4 128 )  ( + T6 89 ) ) ( <= ( + T6 138 )( + T4 92 ) ) )
(or ( <= ( + T4 133 )  ( + T6 138 ) ) ( <= ( + T6 157 )( + T4 128 ) ) )
(or ( <= ( + T4 187 )  ( + T6 157 ) ) ( <= ( + T6 239 )( + T4 133 ) ) )
(or ( <= ( + T4 286 )  ( + T6 239 ) ) ( <= ( + T6 274 )( + T4 187 ) ) )
(or ( <= ( + T4 359 )  ( + T6 274 ) ) ( <= ( + T6 288 )( + T4 286 ) ) )
(or ( <= ( + T4 438 )  ( + T6 288 ) ) ( <= ( + T6 362 )( + T4 359 ) ) )
(or ( <= ( + T4 89 ) T7 ) ( <= ( + T7 30 ) T4 ) )
(or ( <= ( + T4 92 )  ( + T7 30 ) ) ( <= ( + T7 86 )( + T4 89 ) ) )
(or ( <= ( + T4 128 )  ( + T7 86 ) ) ( <= ( + T7 120 )( + T4 92 ) ) )
(or ( <= ( + T4 133 )  ( + T7 120 ) ) ( <= ( + T7 149 )( + T4 128 ) ) )
(or ( <= ( + T4 187 )  ( + T7 149 ) ) ( <= ( + T7 247 )( + T4 133 ) ) )
(or ( <= ( + T4 286 )  ( + T7 247 ) ) ( <= ( + T7 264 )( + T4 187 ) ) )
(or ( <= ( + T4 359 )  ( + T7 264 ) ) ( <= ( + T7 275 )( + T4 286 ) ) )
(or ( <= ( + T4 438 )  ( + T7 275 ) ) ( <= ( + T7 314 )( + T4 359 ) ) )
(or ( <= ( + T4 89 ) T8 ) ( <= ( + T8 19 ) T4 ) )
(or ( <= ( + T4 92 )  ( + T8 19 ) ) ( <= ( + T8 66 )( + T4 89 ) ) )
(or ( <= ( + T4 128 )  ( + T8 66 ) ) ( <= ( + T8 161 )( + T4 92 ) ) )
(or ( <= ( + T4 133 )  ( + T8 161 ) ) ( <= ( + T8 185 )( + T4 128 ) ) )
(or ( <= ( + T4 187 )  ( + T8 185 ) ) ( <= ( + T8 282 )( + T4 133 ) ) )
(or ( <= ( + T4 286 )  ( + T8 282 ) ) ( <= ( + T8 349 )( + T4 187 ) ) )
(or ( <= ( + T4 359 )  ( + T8 349 ) ) ( <= ( + T8 351 )( + T4 286 ) ) )
(or ( <= ( + T4 438 )  ( + T8 351 ) ) ( <= ( + T8 433 )( + T4 359 ) ) )
(or ( <= ( + T4 89 ) T9 ) ( <= ( + T9 90 ) T4 ) )
(or ( <= ( + T4 92 )  ( + T9 90 ) ) ( <= ( + T9 140 )( + T4 89 ) ) )
(or ( <= ( + T4 128 )  ( + T9 140 ) ) ( <= ( + T9 198 )( + T4 92 ) ) )
(or ( <= ( + T4 133 )  ( + T9 198 ) ) ( <= ( + T9 267 )( + T4 128 ) ) )
(or ( <= ( + T4 187 )  ( + T9 267 ) ) ( <= ( + T9 295 )( + T4 133 ) ) )
(or ( <= ( + T4 286 )  ( + T9 295 ) ) ( <= ( + T9 367 )( + T4 187 ) ) )
(or ( <= ( + T4 359 )  ( + T9 367 ) ) ( <= ( + T9 420 )( + T4 286 ) ) )
(or ( <= ( + T4 438 )  ( + T9 420 ) ) ( <= ( + T9 422 )( + T4 359 ) ) )
(or ( <= ( + T4 89 ) T10 ) ( <= ( + T10 87 ) T4 ) )
(or ( <= ( + T4 92 )  ( + T10 87 ) ) ( <= ( + T10 88 )( + T4 89 ) ) )
(or ( <= ( + T4 128 )  ( + T10 88 ) ) ( <= ( + T10 160 )( + T4 92 ) ) )
(or ( <= ( + T4 133 )  ( + T10 160 ) ) ( <= ( + T10 180 )( + T4 128 ) ) )
(or ( <= ( + T4 187 )  ( + T10 180 ) ) ( <= ( + T10 268 )( + T4 133 ) ) )
(or ( <= ( + T4 286 )  ( + T10 268 ) ) ( <= ( + T10 305 )( + T4 187 ) ) )
(or ( <= ( + T4 359 )  ( + T10 305 ) ) ( <= ( + T10 399 )( + T4 286 ) ) )
(or ( <= ( + T4 438 )  ( + T10 399 ) ) ( <= ( + T10 416 )( + T4 359 ) ) )
(or ( <= ( + T5 85 ) T6 ) ( <= ( + T6 74 ) T5 ) )
(or ( <= ( + T5 157 )  ( + T6 74 ) ) ( <= ( + T6 89 )( + T5 85 ) ) )
(or ( <= ( + T5 205 )  ( + T6 89 ) ) ( <= ( + T6 138 )( + T5 157 ) ) )
(or ( <= ( + T5 230 )  ( + T6 138 ) ) ( <= ( + T6 157 )( + T5 205 ) ) )
(or ( <= ( + T5 258 )  ( + T6 157 ) ) ( <= ( + T6 239 )( + T5 230 ) ) )
(or ( <= ( + T5 285 )  ( + T6 239 ) ) ( <= ( + T6 274 )( + T5 258 ) ) )
(or ( <= ( + T5 300 )  ( + T6 274 ) ) ( <= ( + T6 288 )( + T5 285 ) ) )
(or ( <= ( + T5 333 )  ( + T6 288 ) ) ( <= ( + T6 362 )( + T5 300 ) ) )
(or ( <= ( + T5 85 ) T7 ) ( <= ( + T7 30 ) T5 ) )
(or ( <= ( + T5 157 )  ( + T7 30 ) ) ( <= ( + T7 86 )( + T5 85 ) ) )
(or ( <= ( + T5 205 )  ( + T7 86 ) ) ( <= ( + T7 120 )( + T5 157 ) ) )
(or ( <= ( + T5 230 )  ( + T7 120 ) ) ( <= ( + T7 149 )( + T5 205 ) ) )
(or ( <= ( + T5 258 )  ( + T7 149 ) ) ( <= ( + T7 247 )( + T5 230 ) ) )
(or ( <= ( + T5 285 )  ( + T7 247 ) ) ( <= ( + T7 264 )( + T5 258 ) ) )
(or ( <= ( + T5 300 )  ( + T7 264 ) ) ( <= ( + T7 275 )( + T5 285 ) ) )
(or ( <= ( + T5 333 )  ( + T7 275 ) ) ( <= ( + T7 314 )( + T5 300 ) ) )
(or ( <= ( + T5 85 ) T8 ) ( <= ( + T8 19 ) T5 ) )
(or ( <= ( + T5 157 )  ( + T8 19 ) ) ( <= ( + T8 66 )( + T5 85 ) ) )
(or ( <= ( + T5 205 )  ( + T8 66 ) ) ( <= ( + T8 161 )( + T5 157 ) ) )
(or ( <= ( + T5 230 )  ( + T8 161 ) ) ( <= ( + T8 185 )( + T5 205 ) ) )
(or ( <= ( + T5 258 )  ( + T8 185 ) ) ( <= ( + T8 282 )( + T5 230 ) ) )
(or ( <= ( + T5 285 )  ( + T8 282 ) ) ( <= ( + T8 349 )( + T5 258 ) ) )
(or ( <= ( + T5 300 )  ( + T8 349 ) ) ( <= ( + T8 351 )( + T5 285 ) ) )
(or ( <= ( + T5 333 )  ( + T8 351 ) ) ( <= ( + T8 433 )( + T5 300 ) ) )
(or ( <= ( + T5 85 ) T9 ) ( <= ( + T9 90 ) T5 ) )
(or ( <= ( + T5 157 )  ( + T9 90 ) ) ( <= ( + T9 140 )( + T5 85 ) ) )
(or ( <= ( + T5 205 )  ( + T9 140 ) ) ( <= ( + T9 198 )( + T5 157 ) ) )
(or ( <= ( + T5 230 )  ( + T9 198 ) ) ( <= ( + T9 267 )( + T5 205 ) ) )
(or ( <= ( + T5 258 )  ( + T9 267 ) ) ( <= ( + T9 295 )( + T5 230 ) ) )
(or ( <= ( + T5 285 )  ( + T9 295 ) ) ( <= ( + T9 367 )( + T5 258 ) ) )
(or ( <= ( + T5 300 )  ( + T9 367 ) ) ( <= ( + T9 420 )( + T5 285 ) ) )
(or ( <= ( + T5 333 )  ( + T9 420 ) ) ( <= ( + T9 422 )( + T5 300 ) ) )
(or ( <= ( + T5 85 ) T10 ) ( <= ( + T10 87 ) T5 ) )
(or ( <= ( + T5 157 )  ( + T10 87 ) ) ( <= ( + T10 88 )( + T5 85 ) ) )
(or ( <= ( + T5 205 )  ( + T10 88 ) ) ( <= ( + T10 160 )( + T5 157 ) ) )
(or ( <= ( + T5 230 )  ( + T10 160 ) ) ( <= ( + T10 180 )( + T5 205 ) ) )
(or ( <= ( + T5 258 )  ( + T10 180 ) ) ( <= ( + T10 268 )( + T5 230 ) ) )
(or ( <= ( + T5 285 )  ( + T10 268 ) ) ( <= ( + T10 305 )( + T5 258 ) ) )
(or ( <= ( + T5 300 )  ( + T10 305 ) ) ( <= ( + T10 399 )( + T5 285 ) ) )
(or ( <= ( + T5 333 )  ( + T10 399 ) ) ( <= ( + T10 416 )( + T5 300 ) ) )
(or ( <= ( + T6 74 ) T7 ) ( <= ( + T7 30 ) T6 ) )
(or ( <= ( + T6 89 )  ( + T7 30 ) ) ( <= ( + T7 86 )( + T6 74 ) ) )
(or ( <= ( + T6 138 )  ( + T7 86 ) ) ( <= ( + T7 120 )( + T6 89 ) ) )
(or ( <= ( + T6 157 )  ( + T7 120 ) ) ( <= ( + T7 149 )( + T6 138 ) ) )
(or ( <= ( + T6 239 )  ( + T7 149 ) ) ( <= ( + T7 247 )( + T6 157 ) ) )
(or ( <= ( + T6 274 )  ( + T7 247 ) ) ( <= ( + T7 264 )( + T6 239 ) ) )
(or ( <= ( + T6 288 )  ( + T7 264 ) ) ( <= ( + T7 275 )( + T6 274 ) ) )
(or ( <= ( + T6 362 )  ( + T7 275 ) ) ( <= ( + T7 314 )( + T6 288 ) ) )
(or ( <= ( + T6 74 ) T8 ) ( <= ( + T8 19 ) T6 ) )
(or ( <= ( + T6 89 )  ( + T8 19 ) ) ( <= ( + T8 66 )( + T6 74 ) ) )
(or ( <= ( + T6 138 )  ( + T8 66 ) ) ( <= ( + T8 161 )( + T6 89 ) ) )
(or ( <= ( + T6 157 )  ( + T8 161 ) ) ( <= ( + T8 185 )( + T6 138 ) ) )
(or ( <= ( + T6 239 )  ( + T8 185 ) ) ( <= ( + T8 282 )( + T6 157 ) ) )
(or ( <= ( + T6 274 )  ( + T8 282 ) ) ( <= ( + T8 349 )( + T6 239 ) ) )
(or ( <= ( + T6 288 )  ( + T8 349 ) ) ( <= ( + T8 351 )( + T6 274 ) ) )
(or ( <= ( + T6 362 )  ( + T8 351 ) ) ( <= ( + T8 433 )( + T6 288 ) ) )
(or ( <= ( + T6 74 ) T9 ) ( <= ( + T9 90 ) T6 ) )
(or ( <= ( + T6 89 )  ( + T9 90 ) ) ( <= ( + T9 140 )( + T6 74 ) ) )
(or ( <= ( + T6 138 )  ( + T9 140 ) ) ( <= ( + T9 198 )( + T6 89 ) ) )
(or ( <= ( + T6 157 )  ( + T9 198 ) ) ( <= ( + T9 267 )( + T6 138 ) ) )
(or ( <= ( + T6 239 )  ( + T9 267 ) ) ( <= ( + T9 295 )( + T6 157 ) ) )
(or ( <= ( + T6 274 )  ( + T9 295 ) ) ( <= ( + T9 367 )( + T6 239 ) ) )
(or ( <= ( + T6 288 )  ( + T9 367 ) ) ( <= ( + T9 420 )( + T6 274 ) ) )
(or ( <= ( + T6 362 )  ( + T9 420 ) ) ( <= ( + T9 422 )( + T6 288 ) ) )
(or ( <= ( + T6 74 ) T10 ) ( <= ( + T10 87 ) T6 ) )
(or ( <= ( + T6 89 )  ( + T10 87 ) ) ( <= ( + T10 88 )( + T6 74 ) ) )
(or ( <= ( + T6 138 )  ( + T10 88 ) ) ( <= ( + T10 160 )( + T6 89 ) ) )
(or ( <= ( + T6 157 )  ( + T10 160 ) ) ( <= ( + T10 180 )( + T6 138 ) ) )
(or ( <= ( + T6 239 )  ( + T10 180 ) ) ( <= ( + T10 268 )( + T6 157 ) ) )
(or ( <= ( + T6 274 )  ( + T10 268 ) ) ( <= ( + T10 305 )( + T6 239 ) ) )
(or ( <= ( + T6 288 )  ( + T10 305 ) ) ( <= ( + T10 399 )( + T6 274 ) ) )
(or ( <= ( + T6 362 )  ( + T10 399 ) ) ( <= ( + T10 416 )( + T6 288 ) ) )
(or ( <= ( + T7 30 ) T8 ) ( <= ( + T8 19 ) T7 ) )
(or ( <= ( + T7 86 )  ( + T8 19 ) ) ( <= ( + T8 66 )( + T7 30 ) ) )
(or ( <= ( + T7 120 )  ( + T8 66 ) ) ( <= ( + T8 161 )( + T7 86 ) ) )
(or ( <= ( + T7 149 )  ( + T8 161 ) ) ( <= ( + T8 185 )( + T7 120 ) ) )
(or ( <= ( + T7 247 )  ( + T8 185 ) ) ( <= ( + T8 282 )( + T7 149 ) ) )
(or ( <= ( + T7 264 )  ( + T8 282 ) ) ( <= ( + T8 349 )( + T7 247 ) ) )
(or ( <= ( + T7 275 )  ( + T8 349 ) ) ( <= ( + T8 351 )( + T7 264 ) ) )
(or ( <= ( + T7 314 )  ( + T8 351 ) ) ( <= ( + T8 433 )( + T7 275 ) ) )
(or ( <= ( + T7 30 ) T9 ) ( <= ( + T9 90 ) T7 ) )
(or ( <= ( + T7 86 )  ( + T9 90 ) ) ( <= ( + T9 140 )( + T7 30 ) ) )
(or ( <= ( + T7 120 )  ( + T9 140 ) ) ( <= ( + T9 198 )( + T7 86 ) ) )
(or ( <= ( + T7 149 )  ( + T9 198 ) ) ( <= ( + T9 267 )( + T7 120 ) ) )
(or ( <= ( + T7 247 )  ( + T9 267 ) ) ( <= ( + T9 295 )( + T7 149 ) ) )
(or ( <= ( + T7 264 )  ( + T9 295 ) ) ( <= ( + T9 367 )( + T7 247 ) ) )
(or ( <= ( + T7 275 )  ( + T9 367 ) ) ( <= ( + T9 420 )( + T7 264 ) ) )
(or ( <= ( + T7 314 )  ( + T9 420 ) ) ( <= ( + T9 422 )( + T7 275 ) ) )
(or ( <= ( + T7 30 ) T10 ) ( <= ( + T10 87 ) T7 ) )
(or ( <= ( + T7 86 )  ( + T10 87 ) ) ( <= ( + T10 88 )( + T7 30 ) ) )
(or ( <= ( + T7 120 )  ( + T10 88 ) ) ( <= ( + T10 160 )( + T7 86 ) ) )
(or ( <= ( + T7 149 )  ( + T10 160 ) ) ( <= ( + T10 180 )( + T7 120 ) ) )
(or ( <= ( + T7 247 )  ( + T10 180 ) ) ( <= ( + T10 268 )( + T7 149 ) ) )
(or ( <= ( + T7 264 )  ( + T10 268 ) ) ( <= ( + T10 305 )( + T7 247 ) ) )
(or ( <= ( + T7 275 )  ( + T10 305 ) ) ( <= ( + T10 399 )( + T7 264 ) ) )
(or ( <= ( + T7 314 )  ( + T10 399 ) ) ( <= ( + T10 416 )( + T7 275 ) ) )
(or ( <= ( + T8 19 ) T9 ) ( <= ( + T9 90 ) T8 ) )
(or ( <= ( + T8 66 )  ( + T9 90 ) ) ( <= ( + T9 140 )( + T8 19 ) ) )
(or ( <= ( + T8 161 )  ( + T9 140 ) ) ( <= ( + T9 198 )( + T8 66 ) ) )
(or ( <= ( + T8 185 )  ( + T9 198 ) ) ( <= ( + T9 267 )( + T8 161 ) ) )
(or ( <= ( + T8 282 )  ( + T9 267 ) ) ( <= ( + T9 295 )( + T8 185 ) ) )
(or ( <= ( + T8 349 )  ( + T9 295 ) ) ( <= ( + T9 367 )( + T8 282 ) ) )
(or ( <= ( + T8 351 )  ( + T9 367 ) ) ( <= ( + T9 420 )( + T8 349 ) ) )
(or ( <= ( + T8 433 )  ( + T9 420 ) ) ( <= ( + T9 422 )( + T8 351 ) ) )
(or ( <= ( + T8 19 ) T10 ) ( <= ( + T10 87 ) T8 ) )
(or ( <= ( + T8 66 )  ( + T10 87 ) ) ( <= ( + T10 88 )( + T8 19 ) ) )
(or ( <= ( + T8 161 )  ( + T10 88 ) ) ( <= ( + T10 160 )( + T8 66 ) ) )
(or ( <= ( + T8 185 )  ( + T10 160 ) ) ( <= ( + T10 180 )( + T8 161 ) ) )
(or ( <= ( + T8 282 )  ( + T10 180 ) ) ( <= ( + T10 268 )( + T8 185 ) ) )
(or ( <= ( + T8 349 )  ( + T10 268 ) ) ( <= ( + T10 305 )( + T8 282 ) ) )
(or ( <= ( + T8 351 )  ( + T10 305 ) ) ( <= ( + T10 399 )( + T8 349 ) ) )
(or ( <= ( + T8 433 )  ( + T10 399 ) ) ( <= ( + T10 416 )( + T8 351 ) ) )
(or ( <= ( + T9 90 ) T10 ) ( <= ( + T10 87 ) T9 ) )
(or ( <= ( + T9 140 )  ( + T10 87 ) ) ( <= ( + T10 88 )( + T9 90 ) ) )
(or ( <= ( + T9 198 )  ( + T10 88 ) ) ( <= ( + T10 160 )( + T9 140 ) ) )
(or ( <= ( + T9 267 )  ( + T10 160 ) ) ( <= ( + T10 180 )( + T9 198 ) ) )
(or ( <= ( + T9 295 )  ( + T10 180 ) ) ( <= ( + T10 268 )( + T9 267 ) ) )
(or ( <= ( + T9 367 )  ( + T10 268 ) ) ( <= ( + T10 305 )( + T9 295 ) ) )
(or ( <= ( + T9 420 )  ( + T10 305 ) ) ( <= ( + T10 399 )( + T9 367 ) ) )
(or ( <= ( + T9 422 )  ( + T10 399 ) ) ( <= ( + T10 416 )( + T9 420 ) ) )
( <= ( + T1 395 ) Z)
( <= ( + T2 512 ) Z)
( <= ( + T3 543 ) Z)
( <= ( + T4 438 ) Z)
( <= ( + T5 333 ) Z)
( <= ( + T6 362 ) Z)
( <= ( + T7 314 ) Z)
( <= ( + T8 433 ) Z)
( <= ( + T9 422 ) Z)
( <= ( + T10 416 ) Z)
( >= T1 0 )
( >= T2 0 )
( >= T3 0 )
( >= T4 0 )
( >= T5 0 )
( >= T6 0 )
( >= T7 0 )
( >= T8 0 )
( >= T9 0 )
( >= T10 0 )
) )
)(=> $phi $goal))))